Maximize
  - 2.4773062013502 edge_0_1_0_0 - 2.608809184191 edge_0_2_0_0
   - 1.1897627932014 edge_0_3_0_0 - 3.513404136046 edge_0_4_0_0
   - 3.538598187838 edge_0_6_0_0 - 1.2068640859287 edge_0_7_0_0
   - 1.124914393656 edge_0_8_0_0 - 2.1273965602344 edge_0_13_0_0
   - 2.691249515575 edge_0_15_0_0 + 1.027608669559479 edge_1_2_0_0
   + 1.0594249287195 edge_1_3_0_0 + 0.578402427708989 edge_1_4_0_0
   + 0.5886526026987935 edge_1_5_0_0 - 0.0161218030330062 edge_1_6_0_0
   + 0.534149013870079 edge_1_7_0_0 - 0.095051122510851 edge_1_8_0_0
   + 0.5599059971682526 edge_1_12_0_0 + 0.2556089692842794 edge_1_13_0_0
   - 0.3620589378375905 edge_1_14_0_0 - 0.3809082650745735 edge_1_15_0_0
   + 1.38378140330686 edge_1_16_0_0 + 0.5939523544083787 edge_2_1_0_0
   + 1.036149572015727 edge_2_3_0_0 + 0.6682996797293175 edge_2_4_0_0
   - 0.0339116686721707 edge_2_5_0_0 - 0.00236152055660988 edge_2_6_0_0
   + 0.0956435644031726 edge_2_7_0_0 + 0.2775104960969657 edge_2_8_0_0
   - 0.2856524037205587 edge_2_10_0_0 + 0.2908167784859432 edge_2_11_0_0
   + 0.3363240534261013 edge_2_12_0_0 - 0.1883359563947202 edge_2_13_0_0
   - 0.7148740853755858 edge_2_14_0_0 - 0.6252171566181171 edge_2_15_0_0
   + 1.994808408178382 edge_2_16_0_0 + 1.632306363238503 edge_3_1_0_0
   + 3.110201543496796 edge_3_2_0_0 + 0.6298076463551319 edge_3_3_0_0
   + 3.2968766701512 edge_3_4_0_0 + 2.331309831778692 edge_3_5_0_0
   + 2.432197622788667 edge_3_6_0_0 + 0.8582790780208556 edge_3_7_0_0
   + 2.476798099573634 edge_3_8_0_0 + 0.7974303049341916 edge_3_10_0_0
   + 2.01482027252427 edge_3_11_0_0 + 3.064029711264266 edge_3_12_0_0
   + 1.458924060800977 edge_3_13_0_0 + 0.0882355956984331 edge_3_14_0_0
   + 0.9283404946531209 edge_3_15_0_0 + 4.476399708664842 edge_3_16_0_0
   + 0.9818239555674 edge_4_1_0_0 + 0.8639352685601533 edge_4_2_0_0
   + 2.1312498079038 edge_4_3_0_0 + 1.491908081108 edge_4_5_0_0
   + 0.51062186577948 edge_4_6_0_0 + 0.6676557456276001 edge_4_7_0_0
   + 0.9783411967871999 edge_4_8_0_0 + 0.21889262443752 edge_4_10_0_0
   + 1.3291697779254 edge_4_11_0_0 + 1.2323502763308 edge_4_12_0_0
   + 1.174720885625 edge_4_13_0_0 - 0.11106442380499 edge_4_14_0_0
   + 0.15325604423868 edge_4_15_0_0 + 1.51199 edge_4_16_0_0
   - 1.194688016373715 edge_5_3_0_0 - 0.762351308578157 edge_5_4_0_0
   - 0.30150580789087 edge_5_7_0_0 - 0.5127403766354446 edge_6_1_0_0
   - 0.4114815704878479 edge_6_2_0_0 + 0.1966342967568997 edge_6_3_0_0
   - 0.27873564172512 edge_6_4_0_0 + 0.1758999527120657 edge_6_5_0_0
   + 0.1697982027129632 edge_6_7_0_0 + 0.2963193205613276 edge_6_8_0_0
   - 0.3290465275913516 edge_6_10_0_0 - 0.1975036938363467 edge_6_11_0_0
   + 0.3477701941398906 edge_6_12_0_0 - 0.6092862528439201 edge_6_13_0_0
   - 0.7443265176438336 edge_6_15_0_0 - 0.33181210805378 edge_6_16_0_0
   - 0.3072951833278191 edge_7_1_0_0 + 0.0320961062960535 edge_7_2_0_0
   + 0.469171922151003 edge_7_3_0_0 + 0.38929730989068 edge_7_4_0_0
   + 0.5297029859647368 edge_7_5_0_0 + 0.7924954057098906 edge_7_6_0_0
   + 1.064292123314826 edge_7_8_0_0 + 0.8474517580632538 edge_7_11_0_0
   + 1.092058581221767 edge_7_12_0_0 + 1.268593788972759 edge_7_13_0_0
   + 0.260367608071982 edge_7_14_0_0 + 0.4251220471641456 edge_7_15_0_0
   + 2.507982288812737 edge_7_16_0_0 + 0.1391653987152603 edge_8_1_0_0
   + 0.2314419019145381 edge_8_2_0_0 + 0.3304146950163172 edge_8_3_0_0
   + 0.291119570534516 edge_8_4_0_0 + 0.6230326474895711 edge_8_5_0_0
   + 0.7984637023721424 edge_8_6_0_0 + 1.241352835261125 edge_8_7_0_0
   + 2.120258680233138 edge_8_10_0_0 + 1.693463969492147 edge_8_11_0_0
   + 2.500907975657794 edge_8_12_0_0 + 1.920900861530795 edge_8_13_0_0
   + 1.022242493228471 edge_8_14_0_0 + 1.673853924025039 edge_8_15_0_0
   + 1.972282979590374 edge_8_16_0_0 - 0.1635979910023449 edge_10_1_0_0
   - 0.7817580391902909 edge_10_2_0_0 + 0.00547837043856947 edge_10_3_0_0
   - 0.48454569675864 edge_10_4_0_0 + 0.1460823246213559 edge_10_6_0_0
   + 0.8364282073028003 edge_10_8_0_0 + 1.164544001223265 edge_10_12_0_0
   + 0.524546924615458 edge_10_13_0_0 + 0.6081801957551611 edge_10_14_0_0
   + 0.2366471871674986 edge_10_15_0_0 + 0.8962581163452128 edge_10_16_0_0
   - 0.4522774652496164 edge_11_8_0_0 - 0.315924876175725 edge_11_12_0_0
   - 1.267008549514183 edge_12_1_0_0 - 0.2705002802180329 edge_12_8_0_0
   - 0.0438289601691642 edge_12_10_0_0 - 0.3097575086836792 edge_12_11_0_0
   - 0.0131845602135468 edge_12_13_0_0 - 0.5773707178407602 edge_12_14_0_0
   - 1.020767462786623 edge_12_15_0_0 - 0.0462659282032514 edge_13_1_0_0
   - 0.4212888102556063 edge_13_2_0_0 - 0.5757133850912749 edge_13_3_0_0
   - 0.7120393010429552 edge_13_4_0_0 - 0.3191939074256641 edge_13_5_0_0
   + 0.3140517285337196 edge_13_6_0_0 - 0.420134438963275 edge_13_7_0_0
   + 0.1310382934413591 edge_13_8_0_0 - 0.0881970462470612 edge_13_10_0_0
   - 0.4204508856263644 edge_13_11_0_0 + 0.3345888317211924 edge_13_12_0_0
   + 1.684751869731668 edge_13_14_0_0 + 2.752718593104857 edge_13_15_0_0
   + 2.3355052853125 edge_13_16_0_0 - 0.6000373554892366 edge_14_3_0_0
   - 1.072938797990248 edge_14_6_0_0 - 0.4415303484445346 edge_14_10_0_0
   - 0.2634046092871598 edge_14_12_0_0 + 0.2885223177598688 edge_14_13_0_0
   + 0.4682465072957342 edge_14_15_0_0 + 0.1416347179137145 edge_14_16_0_0
   - 0.0338365244119025 edge_15_1_0_0 - 0.9409334424399685 edge_15_2_0_0
   - 0.2779777230859009 edge_15_3_0_0 - 0.288949947989 edge_15_4_0_0
   - 0.1918311089183321 edge_15_5_0_0 + 0.3757702251178794 edge_15_6_0_0
   - 0.2378896556971886 edge_15_7_0_0 + 0.6722294795620318 edge_15_8_0_0
   + 0.8427102411740492 edge_15_10_0_0 + 0.1294917948539789 edge_15_11_0_0
   + 0.4039212335978474 edge_15_12_0_0 + 2.900754332306049 edge_15_13_0_0
   + 3.102229314916309 edge_15_14_0_0 + 2.483437913910695 edge_15_16_0_0
   - 0.72683275418154 edge_16_15_0_0
Subject To
 one_parent_1: edge_0_1_0_0 + edge_2_1_0_0 + edge_3_1_0_0 + edge_4_1_0_0
   + edge_6_1_0_0 + edge_7_1_0_0 + edge_8_1_0_0 + edge_10_1_0_0
   + edge_12_1_0_0 + edge_13_1_0_0 + edge_15_1_0_0 = 1
 consume_one_flow_unit_1: flow_0_1_0_0 - flow_1_2_0_0 - flow_1_3_0_0
   - flow_1_4_0_0 - flow_1_5_0_0 - flow_1_6_0_0 - flow_1_7_0_0
   - flow_1_8_0_0 - flow_1_12_0_0 - flow_1_13_0_0 - flow_1_14_0_0
   - flow_1_15_0_0 - flow_1_16_0_0 + flow_2_1_0_0 + flow_3_1_0_0
   + flow_4_1_0_0 + flow_6_1_0_0 + flow_7_1_0_0 + flow_8_1_0_0
   + flow_10_1_0_0 + flow_12_1_0_0 + flow_13_1_0_0 + flow_15_1_0_0 = 1
 one_parent_2: edge_0_2_0_0 + edge_1_2_0_0 + edge_3_2_0_0 + edge_4_2_0_0
   + edge_6_2_0_0 + edge_7_2_0_0 + edge_8_2_0_0 + edge_10_2_0_0
   + edge_13_2_0_0 + edge_15_2_0_0 = 1
 consume_one_flow_unit_2: flow_0_2_0_0 + flow_1_2_0_0 - flow_2_1_0_0
   - flow_2_3_0_0 - flow_2_4_0_0 - flow_2_5_0_0 - flow_2_6_0_0
   - flow_2_7_0_0 - flow_2_8_0_0 - flow_2_10_0_0 - flow_2_11_0_0
   - flow_2_12_0_0 - flow_2_13_0_0 - flow_2_14_0_0 - flow_2_15_0_0
   - flow_2_16_0_0 + flow_3_2_0_0 + flow_4_2_0_0 + flow_6_2_0_0
   + flow_7_2_0_0 + flow_8_2_0_0 + flow_10_2_0_0 + flow_13_2_0_0
   + flow_15_2_0_0 = 1
 one_parent_3: edge_0_3_0_0 + edge_1_3_0_0 + edge_2_3_0_0 + edge_3_3_0_0
   + edge_4_3_0_0 + edge_5_3_0_0 + edge_6_3_0_0 + edge_7_3_0_0
   + edge_8_3_0_0 + edge_10_3_0_0 + edge_13_3_0_0 + edge_14_3_0_0
   + edge_15_3_0_0 = 1
 consume_one_flow_unit_3: flow_0_3_0_0 + flow_1_3_0_0 + flow_2_3_0_0
   - flow_3_1_0_0 - flow_3_2_0_0 - flow_3_4_0_0 - flow_3_5_0_0
   - flow_3_6_0_0 - flow_3_7_0_0 - flow_3_8_0_0 - flow_3_10_0_0
   - flow_3_11_0_0 - flow_3_12_0_0 - flow_3_13_0_0 - flow_3_14_0_0
   - flow_3_15_0_0 - flow_3_16_0_0 + flow_4_3_0_0 + flow_5_3_0_0
   + flow_6_3_0_0 + flow_7_3_0_0 + flow_8_3_0_0 + flow_10_3_0_0
   + flow_13_3_0_0 + flow_14_3_0_0 + flow_15_3_0_0 = 1
 one_parent_4: edge_0_4_0_0 + edge_1_4_0_0 + edge_2_4_0_0 + edge_3_4_0_0
   + edge_5_4_0_0 + edge_6_4_0_0 + edge_7_4_0_0 + edge_8_4_0_0
   + edge_10_4_0_0 + edge_13_4_0_0 + edge_15_4_0_0 = 1
 consume_one_flow_unit_4: flow_0_4_0_0 + flow_1_4_0_0 + flow_2_4_0_0
   + flow_3_4_0_0 - flow_4_1_0_0 - flow_4_2_0_0 - flow_4_3_0_0
   - flow_4_5_0_0 - flow_4_6_0_0 - flow_4_7_0_0 - flow_4_8_0_0
   - flow_4_10_0_0 - flow_4_11_0_0 - flow_4_12_0_0 - flow_4_13_0_0
   - flow_4_14_0_0 - flow_4_15_0_0 - flow_4_16_0_0 + flow_5_4_0_0
   + flow_6_4_0_0 + flow_7_4_0_0 + flow_8_4_0_0 + flow_10_4_0_0
   + flow_13_4_0_0 + flow_15_4_0_0 = 1
 one_parent_5: edge_1_5_0_0 + edge_2_5_0_0 + edge_3_5_0_0 + edge_4_5_0_0
   + edge_6_5_0_0 + edge_7_5_0_0 + edge_8_5_0_0 + edge_13_5_0_0
   + edge_15_5_0_0 = 1
 consume_one_flow_unit_5: flow_1_5_0_0 + flow_2_5_0_0 + flow_3_5_0_0
   + flow_4_5_0_0 - flow_5_3_0_0 - flow_5_4_0_0 - flow_5_7_0_0
   + flow_6_5_0_0 + flow_7_5_0_0 + flow_8_5_0_0 + flow_13_5_0_0
   + flow_15_5_0_0 = 1
 one_parent_6: edge_0_6_0_0 + edge_1_6_0_0 + edge_2_6_0_0 + edge_3_6_0_0
   + edge_4_6_0_0 + edge_7_6_0_0 + edge_8_6_0_0 + edge_10_6_0_0
   + edge_13_6_0_0 + edge_14_6_0_0 + edge_15_6_0_0 = 1
 consume_one_flow_unit_6: flow_0_6_0_0 + flow_1_6_0_0 + flow_2_6_0_0
   + flow_3_6_0_0 + flow_4_6_0_0 - flow_6_1_0_0 - flow_6_2_0_0
   - flow_6_3_0_0 - flow_6_4_0_0 - flow_6_5_0_0 - flow_6_7_0_0
   - flow_6_8_0_0 - flow_6_10_0_0 - flow_6_11_0_0 - flow_6_12_0_0
   - flow_6_13_0_0 - flow_6_15_0_0 - flow_6_16_0_0 + flow_7_6_0_0
   + flow_8_6_0_0 + flow_10_6_0_0 + flow_13_6_0_0 + flow_14_6_0_0
   + flow_15_6_0_0 = 1
 one_parent_7: edge_0_7_0_0 + edge_1_7_0_0 + edge_2_7_0_0 + edge_3_7_0_0
   + edge_4_7_0_0 + edge_5_7_0_0 + edge_6_7_0_0 + edge_8_7_0_0
   + edge_13_7_0_0 + edge_15_7_0_0 = 1
 consume_one_flow_unit_7: flow_0_7_0_0 + flow_1_7_0_0 + flow_2_7_0_0
   + flow_3_7_0_0 + flow_4_7_0_0 + flow_5_7_0_0 + flow_6_7_0_0
   - flow_7_1_0_0 - flow_7_2_0_0 - flow_7_3_0_0 - flow_7_4_0_0
   - flow_7_5_0_0 - flow_7_6_0_0 - flow_7_8_0_0 - flow_7_11_0_0
   - flow_7_12_0_0 - flow_7_13_0_0 - flow_7_14_0_0 - flow_7_15_0_0
   - flow_7_16_0_0 + flow_8_7_0_0 + flow_13_7_0_0 + flow_15_7_0_0 = 1
 one_parent_8: edge_0_8_0_0 + edge_1_8_0_0 + edge_2_8_0_0 + edge_3_8_0_0
   + edge_4_8_0_0 + edge_6_8_0_0 + edge_7_8_0_0 + edge_10_8_0_0
   + edge_11_8_0_0 + edge_12_8_0_0 + edge_13_8_0_0 + edge_15_8_0_0 = 1
 consume_one_flow_unit_8: flow_0_8_0_0 + flow_1_8_0_0 + flow_2_8_0_0
   + flow_3_8_0_0 + flow_4_8_0_0 + flow_6_8_0_0 + flow_7_8_0_0
   - flow_8_1_0_0 - flow_8_2_0_0 - flow_8_3_0_0 - flow_8_4_0_0
   - flow_8_5_0_0 - flow_8_6_0_0 - flow_8_7_0_0 - flow_8_10_0_0
   - flow_8_11_0_0 - flow_8_12_0_0 - flow_8_13_0_0 - flow_8_14_0_0
   - flow_8_15_0_0 - flow_8_16_0_0 + flow_10_8_0_0 + flow_11_8_0_0
   + flow_12_8_0_0 + flow_13_8_0_0 + flow_15_8_0_0 = 1
 one_parent_9: = 1
 consume_one_flow_unit_9: = 1
 one_parent_10: edge_2_10_0_0 + edge_3_10_0_0 + edge_4_10_0_0
   + edge_6_10_0_0 + edge_8_10_0_0 + edge_12_10_0_0 + edge_13_10_0_0
   + edge_14_10_0_0 + edge_15_10_0_0 = 1
 consume_one_flow_unit_10: flow_2_10_0_0 + flow_3_10_0_0 + flow_4_10_0_0
   + flow_6_10_0_0 + flow_8_10_0_0 - flow_10_1_0_0 - flow_10_2_0_0
   - flow_10_3_0_0 - flow_10_4_0_0 - flow_10_6_0_0 - flow_10_8_0_0
   - flow_10_12_0_0 - flow_10_13_0_0 - flow_10_14_0_0 - flow_10_15_0_0
   - flow_10_16_0_0 + flow_12_10_0_0 + flow_13_10_0_0 + flow_14_10_0_0
   + flow_15_10_0_0 = 1
 one_parent_11: edge_2_11_0_0 + edge_3_11_0_0 + edge_4_11_0_0
   + edge_6_11_0_0 + edge_7_11_0_0 + edge_8_11_0_0 + edge_12_11_0_0
   + edge_13_11_0_0 + edge_15_11_0_0 = 1
 consume_one_flow_unit_11: flow_2_11_0_0 + flow_3_11_0_0 + flow_4_11_0_0
   + flow_6_11_0_0 + flow_7_11_0_0 + flow_8_11_0_0 - flow_11_8_0_0
   - flow_11_12_0_0 + flow_12_11_0_0 + flow_13_11_0_0 + flow_15_11_0_0 = 1
 one_parent_12: edge_1_12_0_0 + edge_2_12_0_0 + edge_3_12_0_0
   + edge_4_12_0_0 + edge_6_12_0_0 + edge_7_12_0_0 + edge_8_12_0_0
   + edge_10_12_0_0 + edge_11_12_0_0 + edge_13_12_0_0 + edge_14_12_0_0
   + edge_15_12_0_0 = 1
 consume_one_flow_unit_12: flow_1_12_0_0 + flow_2_12_0_0 + flow_3_12_0_0
   + flow_4_12_0_0 + flow_6_12_0_0 + flow_7_12_0_0 + flow_8_12_0_0
   + flow_10_12_0_0 + flow_11_12_0_0 - flow_12_1_0_0 - flow_12_8_0_0
   - flow_12_10_0_0 - flow_12_11_0_0 - flow_12_13_0_0 - flow_12_14_0_0
   - flow_12_15_0_0 + flow_13_12_0_0 + flow_14_12_0_0 + flow_15_12_0_0 = 1
 one_parent_13: edge_0_13_0_0 + edge_1_13_0_0 + edge_2_13_0_0
   + edge_3_13_0_0 + edge_4_13_0_0 + edge_6_13_0_0 + edge_7_13_0_0
   + edge_8_13_0_0 + edge_10_13_0_0 + edge_12_13_0_0 + edge_14_13_0_0
   + edge_15_13_0_0 = 1
 consume_one_flow_unit_13: flow_0_13_0_0 + flow_1_13_0_0 + flow_2_13_0_0
   + flow_3_13_0_0 + flow_4_13_0_0 + flow_6_13_0_0 + flow_7_13_0_0
   + flow_8_13_0_0 + flow_10_13_0_0 + flow_12_13_0_0 - flow_13_1_0_0
   - flow_13_2_0_0 - flow_13_3_0_0 - flow_13_4_0_0 - flow_13_5_0_0
   - flow_13_6_0_0 - flow_13_7_0_0 - flow_13_8_0_0 - flow_13_10_0_0
   - flow_13_11_0_0 - flow_13_12_0_0 - flow_13_14_0_0 - flow_13_15_0_0
   - flow_13_16_0_0 + flow_14_13_0_0 + flow_15_13_0_0 = 1
 one_parent_14: edge_1_14_0_0 + edge_2_14_0_0 + edge_3_14_0_0
   + edge_4_14_0_0 + edge_7_14_0_0 + edge_8_14_0_0 + edge_10_14_0_0
   + edge_12_14_0_0 + edge_13_14_0_0 + edge_15_14_0_0 = 1
 consume_one_flow_unit_14: flow_1_14_0_0 + flow_2_14_0_0 + flow_3_14_0_0
   + flow_4_14_0_0 + flow_7_14_0_0 + flow_8_14_0_0 + flow_10_14_0_0
   + flow_12_14_0_0 + flow_13_14_0_0 - flow_14_3_0_0 - flow_14_6_0_0
   - flow_14_10_0_0 - flow_14_12_0_0 - flow_14_13_0_0 - flow_14_15_0_0
   - flow_14_16_0_0 + flow_15_14_0_0 = 1
 one_parent_15: edge_0_15_0_0 + edge_1_15_0_0 + edge_2_15_0_0
   + edge_3_15_0_0 + edge_4_15_0_0 + edge_6_15_0_0 + edge_7_15_0_0
   + edge_8_15_0_0 + edge_10_15_0_0 + edge_12_15_0_0 + edge_13_15_0_0
   + edge_14_15_0_0 + edge_16_15_0_0 = 1
 consume_one_flow_unit_15: flow_0_15_0_0 + flow_1_15_0_0 + flow_2_15_0_0
   + flow_3_15_0_0 + flow_4_15_0_0 + flow_6_15_0_0 + flow_7_15_0_0
   + flow_8_15_0_0 + flow_10_15_0_0 + flow_12_15_0_0 + flow_13_15_0_0
   + flow_14_15_0_0 - flow_15_1_0_0 - flow_15_2_0_0 - flow_15_3_0_0
   - flow_15_4_0_0 - flow_15_5_0_0 - flow_15_6_0_0 - flow_15_7_0_0
   - flow_15_8_0_0 - flow_15_10_0_0 - flow_15_11_0_0 - flow_15_12_0_0
   - flow_15_13_0_0 - flow_15_14_0_0 - flow_15_16_0_0 + flow_16_15_0_0 = 1
 one_parent_16: edge_1_16_0_0 + edge_2_16_0_0 + edge_3_16_0_0
   + edge_4_16_0_0 + edge_6_16_0_0 + edge_7_16_0_0 + edge_8_16_0_0
   + edge_10_16_0_0 + edge_13_16_0_0 + edge_14_16_0_0 + edge_15_16_0_0 = 1
 consume_one_flow_unit_16: flow_1_16_0_0 + flow_2_16_0_0 + flow_3_16_0_0
   + flow_4_16_0_0 + flow_6_16_0_0 + flow_7_16_0_0 + flow_8_16_0_0
   + flow_10_16_0_0 + flow_13_16_0_0 + flow_14_16_0_0 + flow_15_16_0_0
   - flow_16_15_0_0 = 1
 root_flow: flow_0_1_0_0 + flow_0_2_0_0 + flow_0_3_0_0 + flow_0_4_0_0
   + flow_0_6_0_0 + flow_0_7_0_0 + flow_0_8_0_0 + flow_0_13_0_0
   + flow_0_15_0_0 = 16
 inactive_no_flow_0_1_0_0: flow_0_1_0_0 - 1000 edge_0_1_0_0 <= 0
 inactive_no_flow_0_2_0_0: flow_0_2_0_0 - 1000 edge_0_2_0_0 <= 0
 inactive_no_flow_0_3_0_0: flow_0_3_0_0 - 1000 edge_0_3_0_0 <= 0
 inactive_no_flow_0_4_0_0: flow_0_4_0_0 - 1000 edge_0_4_0_0 <= 0
 inactive_no_flow_0_6_0_0: flow_0_6_0_0 - 1000 edge_0_6_0_0 <= 0
 inactive_no_flow_0_7_0_0: flow_0_7_0_0 - 1000 edge_0_7_0_0 <= 0
 inactive_no_flow_0_8_0_0: flow_0_8_0_0 - 1000 edge_0_8_0_0 <= 0
 inactive_no_flow_0_13_0_0: flow_0_13_0_0 - 1000 edge_0_13_0_0 <= 0
 inactive_no_flow_0_15_0_0: flow_0_15_0_0 - 1000 edge_0_15_0_0 <= 0
 inactive_no_flow_1_2_0_0: flow_1_2_0_0 - 1000 edge_1_2_0_0 <= 0
 inactive_no_flow_1_3_0_0: flow_1_3_0_0 - 1000 edge_1_3_0_0 <= 0
 inactive_no_flow_1_4_0_0: flow_1_4_0_0 - 1000 edge_1_4_0_0 <= 0
 inactive_no_flow_1_5_0_0: flow_1_5_0_0 - 1000 edge_1_5_0_0 <= 0
 inactive_no_flow_1_6_0_0: flow_1_6_0_0 - 1000 edge_1_6_0_0 <= 0
 inactive_no_flow_1_7_0_0: flow_1_7_0_0 - 1000 edge_1_7_0_0 <= 0
 inactive_no_flow_1_8_0_0: flow_1_8_0_0 - 1000 edge_1_8_0_0 <= 0
 inactive_no_flow_1_12_0_0: flow_1_12_0_0 - 1000 edge_1_12_0_0 <= 0
 inactive_no_flow_1_13_0_0: flow_1_13_0_0 - 1000 edge_1_13_0_0 <= 0
 inactive_no_flow_1_14_0_0: flow_1_14_0_0 - 1000 edge_1_14_0_0 <= 0
 inactive_no_flow_1_15_0_0: flow_1_15_0_0 - 1000 edge_1_15_0_0 <= 0
 inactive_no_flow_1_16_0_0: flow_1_16_0_0 - 1000 edge_1_16_0_0 <= 0
 inactive_no_flow_2_1_0_0: flow_2_1_0_0 - 1000 edge_2_1_0_0 <= 0
 inactive_no_flow_2_3_0_0: flow_2_3_0_0 - 1000 edge_2_3_0_0 <= 0
 inactive_no_flow_2_4_0_0: flow_2_4_0_0 - 1000 edge_2_4_0_0 <= 0
 inactive_no_flow_2_5_0_0: flow_2_5_0_0 - 1000 edge_2_5_0_0 <= 0
 inactive_no_flow_2_6_0_0: flow_2_6_0_0 - 1000 edge_2_6_0_0 <= 0
 inactive_no_flow_2_7_0_0: flow_2_7_0_0 - 1000 edge_2_7_0_0 <= 0
 inactive_no_flow_2_8_0_0: flow_2_8_0_0 - 1000 edge_2_8_0_0 <= 0
 inactive_no_flow_2_10_0_0: flow_2_10_0_0 - 1000 edge_2_10_0_0 <= 0
 inactive_no_flow_2_11_0_0: flow_2_11_0_0 - 1000 edge_2_11_0_0 <= 0
 inactive_no_flow_2_12_0_0: flow_2_12_0_0 - 1000 edge_2_12_0_0 <= 0
 inactive_no_flow_2_13_0_0: flow_2_13_0_0 - 1000 edge_2_13_0_0 <= 0
 inactive_no_flow_2_14_0_0: flow_2_14_0_0 - 1000 edge_2_14_0_0 <= 0
 inactive_no_flow_2_15_0_0: flow_2_15_0_0 - 1000 edge_2_15_0_0 <= 0
 inactive_no_flow_2_16_0_0: flow_2_16_0_0 - 1000 edge_2_16_0_0 <= 0
 inactive_no_flow_3_1_0_0: flow_3_1_0_0 - 1000 edge_3_1_0_0 <= 0
 inactive_no_flow_3_2_0_0: flow_3_2_0_0 - 1000 edge_3_2_0_0 <= 0
 inactive_no_flow_3_3_0_0: flow_3_3_0_0 - 1000 edge_3_3_0_0 <= 0
 inactive_no_flow_3_4_0_0: flow_3_4_0_0 - 1000 edge_3_4_0_0 <= 0
 inactive_no_flow_3_5_0_0: flow_3_5_0_0 - 1000 edge_3_5_0_0 <= 0
 inactive_no_flow_3_6_0_0: flow_3_6_0_0 - 1000 edge_3_6_0_0 <= 0
 inactive_no_flow_3_7_0_0: flow_3_7_0_0 - 1000 edge_3_7_0_0 <= 0
 inactive_no_flow_3_8_0_0: flow_3_8_0_0 - 1000 edge_3_8_0_0 <= 0
 inactive_no_flow_3_10_0_0: flow_3_10_0_0 - 1000 edge_3_10_0_0 <= 0
 inactive_no_flow_3_11_0_0: flow_3_11_0_0 - 1000 edge_3_11_0_0 <= 0
 inactive_no_flow_3_12_0_0: flow_3_12_0_0 - 1000 edge_3_12_0_0 <= 0
 inactive_no_flow_3_13_0_0: flow_3_13_0_0 - 1000 edge_3_13_0_0 <= 0
 inactive_no_flow_3_14_0_0: flow_3_14_0_0 - 1000 edge_3_14_0_0 <= 0
 inactive_no_flow_3_15_0_0: flow_3_15_0_0 - 1000 edge_3_15_0_0 <= 0
 inactive_no_flow_3_16_0_0: flow_3_16_0_0 - 1000 edge_3_16_0_0 <= 0
 inactive_no_flow_4_1_0_0: flow_4_1_0_0 - 1000 edge_4_1_0_0 <= 0
 inactive_no_flow_4_2_0_0: flow_4_2_0_0 - 1000 edge_4_2_0_0 <= 0
 inactive_no_flow_4_3_0_0: flow_4_3_0_0 - 1000 edge_4_3_0_0 <= 0
 inactive_no_flow_4_5_0_0: flow_4_5_0_0 - 1000 edge_4_5_0_0 <= 0
 inactive_no_flow_4_6_0_0: flow_4_6_0_0 - 1000 edge_4_6_0_0 <= 0
 inactive_no_flow_4_7_0_0: flow_4_7_0_0 - 1000 edge_4_7_0_0 <= 0
 inactive_no_flow_4_8_0_0: flow_4_8_0_0 - 1000 edge_4_8_0_0 <= 0
 inactive_no_flow_4_10_0_0: flow_4_10_0_0 - 1000 edge_4_10_0_0 <= 0
 inactive_no_flow_4_11_0_0: flow_4_11_0_0 - 1000 edge_4_11_0_0 <= 0
 inactive_no_flow_4_12_0_0: flow_4_12_0_0 - 1000 edge_4_12_0_0 <= 0
 inactive_no_flow_4_13_0_0: flow_4_13_0_0 - 1000 edge_4_13_0_0 <= 0
 inactive_no_flow_4_14_0_0: flow_4_14_0_0 - 1000 edge_4_14_0_0 <= 0
 inactive_no_flow_4_15_0_0: flow_4_15_0_0 - 1000 edge_4_15_0_0 <= 0
 inactive_no_flow_4_16_0_0: flow_4_16_0_0 - 1000 edge_4_16_0_0 <= 0
 inactive_no_flow_5_3_0_0: flow_5_3_0_0 - 1000 edge_5_3_0_0 <= 0
 inactive_no_flow_5_4_0_0: flow_5_4_0_0 - 1000 edge_5_4_0_0 <= 0
 inactive_no_flow_5_7_0_0: flow_5_7_0_0 - 1000 edge_5_7_0_0 <= 0
 inactive_no_flow_6_1_0_0: flow_6_1_0_0 - 1000 edge_6_1_0_0 <= 0
 inactive_no_flow_6_2_0_0: flow_6_2_0_0 - 1000 edge_6_2_0_0 <= 0
 inactive_no_flow_6_3_0_0: flow_6_3_0_0 - 1000 edge_6_3_0_0 <= 0
 inactive_no_flow_6_4_0_0: flow_6_4_0_0 - 1000 edge_6_4_0_0 <= 0
 inactive_no_flow_6_5_0_0: flow_6_5_0_0 - 1000 edge_6_5_0_0 <= 0
 inactive_no_flow_6_7_0_0: flow_6_7_0_0 - 1000 edge_6_7_0_0 <= 0
 inactive_no_flow_6_8_0_0: flow_6_8_0_0 - 1000 edge_6_8_0_0 <= 0
 inactive_no_flow_6_10_0_0: flow_6_10_0_0 - 1000 edge_6_10_0_0 <= 0
 inactive_no_flow_6_11_0_0: flow_6_11_0_0 - 1000 edge_6_11_0_0 <= 0
 inactive_no_flow_6_12_0_0: flow_6_12_0_0 - 1000 edge_6_12_0_0 <= 0
 inactive_no_flow_6_13_0_0: flow_6_13_0_0 - 1000 edge_6_13_0_0 <= 0
 inactive_no_flow_6_15_0_0: flow_6_15_0_0 - 1000 edge_6_15_0_0 <= 0
 inactive_no_flow_6_16_0_0: flow_6_16_0_0 - 1000 edge_6_16_0_0 <= 0
 inactive_no_flow_7_1_0_0: flow_7_1_0_0 - 1000 edge_7_1_0_0 <= 0
 inactive_no_flow_7_2_0_0: flow_7_2_0_0 - 1000 edge_7_2_0_0 <= 0
 inactive_no_flow_7_3_0_0: flow_7_3_0_0 - 1000 edge_7_3_0_0 <= 0
 inactive_no_flow_7_4_0_0: flow_7_4_0_0 - 1000 edge_7_4_0_0 <= 0
 inactive_no_flow_7_5_0_0: flow_7_5_0_0 - 1000 edge_7_5_0_0 <= 0
 inactive_no_flow_7_6_0_0: flow_7_6_0_0 - 1000 edge_7_6_0_0 <= 0
 inactive_no_flow_7_8_0_0: flow_7_8_0_0 - 1000 edge_7_8_0_0 <= 0
 inactive_no_flow_7_11_0_0: flow_7_11_0_0 - 1000 edge_7_11_0_0 <= 0
 inactive_no_flow_7_12_0_0: flow_7_12_0_0 - 1000 edge_7_12_0_0 <= 0
 inactive_no_flow_7_13_0_0: flow_7_13_0_0 - 1000 edge_7_13_0_0 <= 0
 inactive_no_flow_7_14_0_0: flow_7_14_0_0 - 1000 edge_7_14_0_0 <= 0
 inactive_no_flow_7_15_0_0: flow_7_15_0_0 - 1000 edge_7_15_0_0 <= 0
 inactive_no_flow_7_16_0_0: flow_7_16_0_0 - 1000 edge_7_16_0_0 <= 0
 inactive_no_flow_8_1_0_0: flow_8_1_0_0 - 1000 edge_8_1_0_0 <= 0
 inactive_no_flow_8_2_0_0: flow_8_2_0_0 - 1000 edge_8_2_0_0 <= 0
 inactive_no_flow_8_3_0_0: flow_8_3_0_0 - 1000 edge_8_3_0_0 <= 0
 inactive_no_flow_8_4_0_0: flow_8_4_0_0 - 1000 edge_8_4_0_0 <= 0
 inactive_no_flow_8_5_0_0: flow_8_5_0_0 - 1000 edge_8_5_0_0 <= 0
 inactive_no_flow_8_6_0_0: flow_8_6_0_0 - 1000 edge_8_6_0_0 <= 0
 inactive_no_flow_8_7_0_0: flow_8_7_0_0 - 1000 edge_8_7_0_0 <= 0
 inactive_no_flow_8_10_0_0: flow_8_10_0_0 - 1000 edge_8_10_0_0 <= 0
 inactive_no_flow_8_11_0_0: flow_8_11_0_0 - 1000 edge_8_11_0_0 <= 0
 inactive_no_flow_8_12_0_0: flow_8_12_0_0 - 1000 edge_8_12_0_0 <= 0
 inactive_no_flow_8_13_0_0: flow_8_13_0_0 - 1000 edge_8_13_0_0 <= 0
 inactive_no_flow_8_14_0_0: flow_8_14_0_0 - 1000 edge_8_14_0_0 <= 0
 inactive_no_flow_8_15_0_0: flow_8_15_0_0 - 1000 edge_8_15_0_0 <= 0
 inactive_no_flow_8_16_0_0: flow_8_16_0_0 - 1000 edge_8_16_0_0 <= 0
 inactive_no_flow_10_1_0_0: flow_10_1_0_0 - 1000 edge_10_1_0_0 <= 0
 inactive_no_flow_10_2_0_0: flow_10_2_0_0 - 1000 edge_10_2_0_0 <= 0
 inactive_no_flow_10_3_0_0: flow_10_3_0_0 - 1000 edge_10_3_0_0 <= 0
 inactive_no_flow_10_4_0_0: flow_10_4_0_0 - 1000 edge_10_4_0_0 <= 0
 inactive_no_flow_10_6_0_0: flow_10_6_0_0 - 1000 edge_10_6_0_0 <= 0
 inactive_no_flow_10_8_0_0: flow_10_8_0_0 - 1000 edge_10_8_0_0 <= 0
 inactive_no_flow_10_12_0_0: flow_10_12_0_0 - 1000 edge_10_12_0_0 <= 0
 inactive_no_flow_10_13_0_0: flow_10_13_0_0 - 1000 edge_10_13_0_0 <= 0
 inactive_no_flow_10_14_0_0: flow_10_14_0_0 - 1000 edge_10_14_0_0 <= 0
 inactive_no_flow_10_15_0_0: flow_10_15_0_0 - 1000 edge_10_15_0_0 <= 0
 inactive_no_flow_10_16_0_0: flow_10_16_0_0 - 1000 edge_10_16_0_0 <= 0
 inactive_no_flow_11_8_0_0: flow_11_8_0_0 - 1000 edge_11_8_0_0 <= 0
 inactive_no_flow_11_12_0_0: flow_11_12_0_0 - 1000 edge_11_12_0_0 <= 0
 inactive_no_flow_12_1_0_0: flow_12_1_0_0 - 1000 edge_12_1_0_0 <= 0
 inactive_no_flow_12_8_0_0: flow_12_8_0_0 - 1000 edge_12_8_0_0 <= 0
 inactive_no_flow_12_10_0_0: flow_12_10_0_0 - 1000 edge_12_10_0_0 <= 0
 inactive_no_flow_12_11_0_0: flow_12_11_0_0 - 1000 edge_12_11_0_0 <= 0
 inactive_no_flow_12_13_0_0: flow_12_13_0_0 - 1000 edge_12_13_0_0 <= 0
 inactive_no_flow_12_14_0_0: flow_12_14_0_0 - 1000 edge_12_14_0_0 <= 0
 inactive_no_flow_12_15_0_0: flow_12_15_0_0 - 1000 edge_12_15_0_0 <= 0
 inactive_no_flow_13_1_0_0: flow_13_1_0_0 - 1000 edge_13_1_0_0 <= 0
 inactive_no_flow_13_2_0_0: flow_13_2_0_0 - 1000 edge_13_2_0_0 <= 0
 inactive_no_flow_13_3_0_0: flow_13_3_0_0 - 1000 edge_13_3_0_0 <= 0
 inactive_no_flow_13_4_0_0: flow_13_4_0_0 - 1000 edge_13_4_0_0 <= 0
 inactive_no_flow_13_5_0_0: flow_13_5_0_0 - 1000 edge_13_5_0_0 <= 0
 inactive_no_flow_13_6_0_0: flow_13_6_0_0 - 1000 edge_13_6_0_0 <= 0
 inactive_no_flow_13_7_0_0: flow_13_7_0_0 - 1000 edge_13_7_0_0 <= 0
 inactive_no_flow_13_8_0_0: flow_13_8_0_0 - 1000 edge_13_8_0_0 <= 0
 inactive_no_flow_13_10_0_0: flow_13_10_0_0 - 1000 edge_13_10_0_0 <= 0
 inactive_no_flow_13_11_0_0: flow_13_11_0_0 - 1000 edge_13_11_0_0 <= 0
 inactive_no_flow_13_12_0_0: flow_13_12_0_0 - 1000 edge_13_12_0_0 <= 0
 inactive_no_flow_13_14_0_0: flow_13_14_0_0 - 1000 edge_13_14_0_0 <= 0
 inactive_no_flow_13_15_0_0: flow_13_15_0_0 - 1000 edge_13_15_0_0 <= 0
 inactive_no_flow_13_16_0_0: flow_13_16_0_0 - 1000 edge_13_16_0_0 <= 0
 inactive_no_flow_14_3_0_0: flow_14_3_0_0 - 1000 edge_14_3_0_0 <= 0
 inactive_no_flow_14_6_0_0: flow_14_6_0_0 - 1000 edge_14_6_0_0 <= 0
 inactive_no_flow_14_10_0_0: flow_14_10_0_0 - 1000 edge_14_10_0_0 <= 0
 inactive_no_flow_14_12_0_0: flow_14_12_0_0 - 1000 edge_14_12_0_0 <= 0
 inactive_no_flow_14_13_0_0: flow_14_13_0_0 - 1000 edge_14_13_0_0 <= 0
 inactive_no_flow_14_15_0_0: flow_14_15_0_0 - 1000 edge_14_15_0_0 <= 0
 inactive_no_flow_14_16_0_0: flow_14_16_0_0 - 1000 edge_14_16_0_0 <= 0
 inactive_no_flow_15_1_0_0: flow_15_1_0_0 - 1000 edge_15_1_0_0 <= 0
 inactive_no_flow_15_2_0_0: flow_15_2_0_0 - 1000 edge_15_2_0_0 <= 0
 inactive_no_flow_15_3_0_0: flow_15_3_0_0 - 1000 edge_15_3_0_0 <= 0
 inactive_no_flow_15_4_0_0: flow_15_4_0_0 - 1000 edge_15_4_0_0 <= 0
 inactive_no_flow_15_5_0_0: flow_15_5_0_0 - 1000 edge_15_5_0_0 <= 0
 inactive_no_flow_15_6_0_0: flow_15_6_0_0 - 1000 edge_15_6_0_0 <= 0
 inactive_no_flow_15_7_0_0: flow_15_7_0_0 - 1000 edge_15_7_0_0 <= 0
 inactive_no_flow_15_8_0_0: flow_15_8_0_0 - 1000 edge_15_8_0_0 <= 0
 inactive_no_flow_15_10_0_0: flow_15_10_0_0 - 1000 edge_15_10_0_0 <= 0
 inactive_no_flow_15_11_0_0: flow_15_11_0_0 - 1000 edge_15_11_0_0 <= 0
 inactive_no_flow_15_12_0_0: flow_15_12_0_0 - 1000 edge_15_12_0_0 <= 0
 inactive_no_flow_15_13_0_0: flow_15_13_0_0 - 1000 edge_15_13_0_0 <= 0
 inactive_no_flow_15_14_0_0: flow_15_14_0_0 - 1000 edge_15_14_0_0 <= 0
 inactive_no_flow_15_16_0_0: flow_15_16_0_0 - 1000 edge_15_16_0_0 <= 0
 inactive_no_flow_16_15_0_0: flow_16_15_0_0 - 1000 edge_16_15_0_0 <= 0
Bounds
Binaries
 edge_0_1_0_0 edge_0_2_0_0 edge_0_3_0_0 edge_0_4_0_0 edge_0_6_0_0
 edge_0_7_0_0 edge_0_8_0_0 edge_0_13_0_0 edge_0_15_0_0 edge_1_2_0_0
 edge_1_3_0_0 edge_1_4_0_0 edge_1_5_0_0 edge_1_6_0_0 edge_1_7_0_0
 edge_1_8_0_0 edge_1_12_0_0 edge_1_13_0_0 edge_1_14_0_0 edge_1_15_0_0
 edge_1_16_0_0 edge_2_1_0_0 edge_2_3_0_0 edge_2_4_0_0 edge_2_5_0_0
 edge_2_6_0_0 edge_2_7_0_0 edge_2_8_0_0 edge_2_10_0_0 edge_2_11_0_0
 edge_2_12_0_0 edge_2_13_0_0 edge_2_14_0_0 edge_2_15_0_0 edge_2_16_0_0
 edge_3_1_0_0 edge_3_2_0_0 edge_3_3_0_0 edge_3_4_0_0 edge_3_5_0_0
 edge_3_6_0_0 edge_3_7_0_0 edge_3_8_0_0 edge_3_10_0_0 edge_3_11_0_0
 edge_3_12_0_0 edge_3_13_0_0 edge_3_14_0_0 edge_3_15_0_0 edge_3_16_0_0
 edge_4_1_0_0 edge_4_2_0_0 edge_4_3_0_0 edge_4_5_0_0 edge_4_6_0_0
 edge_4_7_0_0 edge_4_8_0_0 edge_4_10_0_0 edge_4_11_0_0 edge_4_12_0_0
 edge_4_13_0_0 edge_4_14_0_0 edge_4_15_0_0 edge_4_16_0_0 edge_5_3_0_0
 edge_5_4_0_0 edge_5_7_0_0 edge_6_1_0_0 edge_6_2_0_0 edge_6_3_0_0
 edge_6_4_0_0 edge_6_5_0_0 edge_6_7_0_0 edge_6_8_0_0 edge_6_10_0_0
 edge_6_11_0_0 edge_6_12_0_0 edge_6_13_0_0 edge_6_15_0_0 edge_6_16_0_0
 edge_7_1_0_0 edge_7_2_0_0 edge_7_3_0_0 edge_7_4_0_0 edge_7_5_0_0
 edge_7_6_0_0 edge_7_8_0_0 edge_7_11_0_0 edge_7_12_0_0 edge_7_13_0_0
 edge_7_14_0_0 edge_7_15_0_0 edge_7_16_0_0 edge_8_1_0_0 edge_8_2_0_0
 edge_8_3_0_0 edge_8_4_0_0 edge_8_5_0_0 edge_8_6_0_0 edge_8_7_0_0
 edge_8_10_0_0 edge_8_11_0_0 edge_8_12_0_0 edge_8_13_0_0 edge_8_14_0_0
 edge_8_15_0_0 edge_8_16_0_0 edge_10_1_0_0 edge_10_2_0_0 edge_10_3_0_0
 edge_10_4_0_0 edge_10_6_0_0 edge_10_8_0_0 edge_10_12_0_0 edge_10_13_0_0
 edge_10_14_0_0 edge_10_15_0_0 edge_10_16_0_0 edge_11_8_0_0 edge_11_12_0_0
 edge_12_1_0_0 edge_12_8_0_0 edge_12_10_0_0 edge_12_11_0_0 edge_12_13_0_0
 edge_12_14_0_0 edge_12_15_0_0 edge_13_1_0_0 edge_13_2_0_0 edge_13_3_0_0
 edge_13_4_0_0 edge_13_5_0_0 edge_13_6_0_0 edge_13_7_0_0 edge_13_8_0_0
 edge_13_10_0_0 edge_13_11_0_0 edge_13_12_0_0 edge_13_14_0_0 edge_13_15_0_0
 edge_13_16_0_0 edge_14_3_0_0 edge_14_6_0_0 edge_14_10_0_0 edge_14_12_0_0
 edge_14_13_0_0 edge_14_15_0_0 edge_14_16_0_0 edge_15_1_0_0 edge_15_2_0_0
 edge_15_3_0_0 edge_15_4_0_0 edge_15_5_0_0 edge_15_6_0_0 edge_15_7_0_0
 edge_15_8_0_0 edge_15_10_0_0 edge_15_11_0_0 edge_15_12_0_0 edge_15_13_0_0
 edge_15_14_0_0 edge_15_16_0_0 edge_16_15_0_0
End
